; POP DUP1 PUSH 0x00 ADD MLOAD SWAP2 => DUP2 MLOAD SWAP3 SWAP1 POP
(set-option :produce-proofs true)
; 
(set-info :status unknown)
(declare-fun storage_t ((_ BitVec 256) (_ BitVec 256) (_ BitVec 256) (_ BitVec 256) Int (_ BitVec 256)) (_ BitVec 256))
(declare-fun storage_s ((_ BitVec 256) (_ BitVec 256) (_ BitVec 256) (_ BitVec 256) Int (_ BitVec 256)) (_ BitVec 256))
(declare-fun exc_halt_t (Int) Bool)
(declare-fun exc_halt_s (Int) Bool)
(declare-fun stack_t ((_ BitVec 256) (_ BitVec 256) (_ BitVec 256) (_ BitVec 256) Int (_ BitVec 6)) (_ BitVec 256))
(declare-fun stack_s ((_ BitVec 256) (_ BitVec 256) (_ BitVec 256) (_ BitVec 256) Int (_ BitVec 6)) (_ BitVec 256))
(declare-fun sc_t (Int) (_ BitVec 6))
(declare-fun sc_s (Int) (_ BitVec 6))
(declare-fun used_gas_t ((_ BitVec 256) (_ BitVec 256) (_ BitVec 256) (_ BitVec 256) Int) Int)
(declare-fun used_gas_s ((_ BitVec 256) (_ BitVec 256) (_ BitVec 256) (_ BitVec 256) Int) Int)
(declare-fun f_MLOAD ((_ BitVec 256) (_ BitVec 256) (_ BitVec 256) (_ BitVec 256) (_ BitVec 256)) (_ BitVec 256))
(assert
 (exists ((x_0 (_ BitVec 256)) (x_1 (_ BitVec 256)) (x_2 (_ BitVec 256)) (x_MLOAD_0 (_ BitVec 256)) )(let (($x3510 (forall ((w (_ BitVec 256)) )(let ((?x9112 (storage_t x_0 x_1 x_2 x_MLOAD_0 5 w)))
 (let ((?x3143 (storage_s x_0 x_1 x_2 x_MLOAD_0 6 w)))
 (= ?x3143 ?x9112))))
 ))
 (let (($x1885 (exc_halt_t 5)))
 (let (($x772 (exc_halt_s 6)))
 (let (($x11108 (= $x772 $x1885)))
 (let (($x8957 (forall ((n (_ BitVec 6)) )(let ((?x4747 (stack_t x_0 x_1 x_2 x_MLOAD_0 5 n)))
 (let ((?x5593 (stack_s x_0 x_1 x_2 x_MLOAD_0 6 n)))
 (let (($x1701 (= ?x5593 ?x4747)))
 (or (bvsle (sc_t 5) n) $x1701)))))
 ))
 (let ((?x8961 (sc_t 5)))
 (let ((?x926 (sc_s 6)))
 (let (($x5889 (= ?x926 ?x8961)))
 (let ((?x6404 (used_gas_t x_0 x_1 x_2 x_MLOAD_0 0)))
 (let ((?x4495 (used_gas_s x_0 x_1 x_2 x_MLOAD_0 0)))
 (let (($x2902 (= ?x4495 ?x6404)))
 (let (($x5657 (forall ((w (_ BitVec 256)) )(let ((?x11145 (storage_t x_0 x_1 x_2 x_MLOAD_0 0 w)))
 (let ((?x4115 (storage_s x_0 x_1 x_2 x_MLOAD_0 0 w)))
 (= ?x4115 ?x11145))))
 ))
 (let (($x56 (exc_halt_t 0)))
 (let (($x57 (exc_halt_s 0)))
 (let (($x58 (= $x57 $x56)))
 (let (($x6928 (forall ((n (_ BitVec 6)) )(let ((?x4392 (stack_t x_0 x_1 x_2 x_MLOAD_0 0 n)))
 (let ((?x2427 (stack_s x_0 x_1 x_2 x_MLOAD_0 0 n)))
 (let (($x11125 (= ?x2427 ?x4392)))
 (let ((?x63 (sc_t 0)))
 (let (($x4912 (bvsle ?x63 n)))
 (or $x4912 $x11125)))))))
 ))
 (let ((?x63 (sc_t 0)))
 (let ((?x72 (sc_s 0)))
 (let (($x73 (= ?x72 ?x63)))
 (let (($x1327 (= $x1885 (or (exc_halt_t 4) (not (bvsle (_ bv0 6) (bvadd (_ bv63 6) (sc_t 4))))))))
 (let (($x6284 (forall ((w (_ BitVec 256)) )(let ((?x2405 (storage_t x_0 x_1 x_2 x_MLOAD_0 4 w)))
 (let ((?x9112 (storage_t x_0 x_1 x_2 x_MLOAD_0 5 w)))
 (= ?x9112 ?x2405))))
 ))
 (let (($x8323 (forall ((n (_ BitVec 6)) )(let ((?x2081 (stack_t x_0 x_1 x_2 x_MLOAD_0 4 n)))
 (let ((?x4747 (stack_t x_0 x_1 x_2 x_MLOAD_0 5 n)))
 (or (= ?x4747 ?x2081) (bvsle (bvadd (_ bv63 6) (sc_t 4)) n)))))
 ))
 (let (($x5978 (= (used_gas_t x_0 x_1 x_2 x_MLOAD_0 5) (+ 2 (used_gas_t x_0 x_1 x_2 x_MLOAD_0 4)))))
 (let (($x7854 (exc_halt_t 4)))
 (let (($x9351 (= $x7854 (or (exc_halt_t 3) (not (bvsle (_ bv0 6) (bvadd (_ bv62 6) (sc_t 3))))))))
 (let (($x825 (forall ((w (_ BitVec 256)) )(let ((?x10735 (storage_t x_0 x_1 x_2 x_MLOAD_0 3 w)))
 (let ((?x2405 (storage_t x_0 x_1 x_2 x_MLOAD_0 4 w)))
 (= ?x2405 ?x10735))))
 ))
 (let (($x11709 (forall ((n (_ BitVec 6)) )(let ((?x7242 (stack_t x_0 x_1 x_2 x_MLOAD_0 3 n)))
 (let ((?x2081 (stack_t x_0 x_1 x_2 x_MLOAD_0 4 n)))
 (or (bvsle (bvadd (_ bv62 6) (sc_t 3)) n) (= ?x2081 ?x7242)))))
 ))
 (let ((?x8690 (used_gas_t x_0 x_1 x_2 x_MLOAD_0 4)))
 (let ((?x11304 (sc_t 3)))
 (let ((?x2559 (bvadd (_ bv63 6) ?x11304)))
 (let ((?x11925 (stack_t x_0 x_1 x_2 x_MLOAD_0 3 ?x2559)))
 (let (($x3310 (= (stack_t x_0 x_1 x_2 x_MLOAD_0 4 (bvadd (_ bv62 6) (sc_t 4))) ?x11925)))
 (let ((?x9790 (bvadd (_ bv62 6) ?x11304)))
 (let ((?x8677 (stack_t x_0 x_1 x_2 x_MLOAD_0 3 ?x9790)))
 (let (($x9489 (= (stack_t x_0 x_1 x_2 x_MLOAD_0 4 (bvadd (_ bv63 6) (sc_t 4))) ?x8677)))
 (let (($x3614 (exc_halt_t 3)))
 (let (($x11973 (= $x3614 (or (exc_halt_t 2) (not (bvsle (_ bv0 6) (bvadd (_ bv60 6) (sc_t 2))))))))
 (let (($x4258 (forall ((w (_ BitVec 256)) )(let ((?x10631 (storage_t x_0 x_1 x_2 x_MLOAD_0 2 w)))
 (let ((?x10735 (storage_t x_0 x_1 x_2 x_MLOAD_0 3 w)))
 (= ?x10735 ?x10631))))
 ))
 (let (($x6823 (forall ((n (_ BitVec 6)) )(let ((?x4252 (stack_t x_0 x_1 x_2 x_MLOAD_0 2 n)))
 (let ((?x7242 (stack_t x_0 x_1 x_2 x_MLOAD_0 3 n)))
 (or (bvsle (bvadd (_ bv60 6) (sc_t 2)) n) (= ?x7242 ?x4252)))))
 ))
 (let ((?x6158 (sc_t 2)))
 (let (($x10184 (= ?x11304 ?x6158)))
 (let ((?x6487 (used_gas_t x_0 x_1 x_2 x_MLOAD_0 3)))
 (let (($x8676 (= (stack_t x_0 x_1 x_2 x_MLOAD_0 3 (bvadd (_ bv61 6) ?x11304)) (stack_t x_0 x_1 x_2 x_MLOAD_0 2 (bvadd (_ bv61 6) ?x6158)))))
 (let ((?x4024 (bvadd (_ bv63 6) ?x6158)))
 (let ((?x10126 (stack_t x_0 x_1 x_2 x_MLOAD_0 2 ?x4024)))
 (let (($x4045 (exc_halt_t 2)))
 (let (($x5557 (= $x4045 (or (exc_halt_t 1) (not (bvsle (_ bv0 6) (bvadd (_ bv63 6) (sc_t 1))))))))
 (let (($x11265 (forall ((w (_ BitVec 256)) )(let ((?x8952 (storage_t x_0 x_1 x_2 x_MLOAD_0 1 w)))
 (let ((?x10631 (storage_t x_0 x_1 x_2 x_MLOAD_0 2 w)))
 (= ?x10631 ?x8952))))
 ))
 (let (($x5689 (forall ((n (_ BitVec 6)) )(let ((?x2435 (stack_t x_0 x_1 x_2 x_MLOAD_0 1 n)))
 (let ((?x4252 (stack_t x_0 x_1 x_2 x_MLOAD_0 2 n)))
 (or (= ?x4252 ?x2435) (bvsle (bvadd (_ bv63 6) (sc_t 1)) n)))))
 ))
 (let ((?x3278 (used_gas_t x_0 x_1 x_2 x_MLOAD_0 2)))
 (let ((?x7154 (sc_t 1)))
 (let ((?x11261 (bvadd (_ bv63 6) ?x7154)))
 (let ((?x3608 (stack_t x_0 x_1 x_2 x_MLOAD_0 1 ?x11261)))
 (let (($x3533 (or $x56 (not (= ((_ extract 6 6) (bvadd (_ bv1 7) (concat (_ bv0 1) ?x63))) (_ bv0 1))) (not (bvsle (_ bv0 6) (bvadd (_ bv62 6) ?x63))))))
 (let (($x8377 (exc_halt_t 1)))
 (let (($x5124 (forall ((w (_ BitVec 256)) )(let ((?x11145 (storage_t x_0 x_1 x_2 x_MLOAD_0 0 w)))
 (let ((?x8952 (storage_t x_0 x_1 x_2 x_MLOAD_0 1 w)))
 (= ?x8952 ?x11145))))
 ))
 (let (($x7029 (forall ((n (_ BitVec 6)) )(let ((?x4392 (stack_t x_0 x_1 x_2 x_MLOAD_0 0 n)))
 (let ((?x2435 (stack_t x_0 x_1 x_2 x_MLOAD_0 1 n)))
 (or (= ?x2435 ?x4392) (bvsle (bvadd (_ bv62 6) (sc_t 0)) n)))))
 ))
 (let (($x9764 (= (stack_t x_0 x_1 x_2 x_MLOAD_0 1 (bvadd (_ bv63 6) ?x63)) (stack_t x_0 x_1 x_2 x_MLOAD_0 0 (bvadd (_ bv63 6) ?x63)))))
 (let ((?x5779 (bvadd (_ bv62 6) ?x63)))
 (let ((?x11131 (stack_t x_0 x_1 x_2 x_MLOAD_0 0 ?x5779)))
 (let (($x9853 (= $x772 (or (exc_halt_s 5) (not (bvsle (_ bv0 6) (bvadd (_ bv61 6) (sc_s 5))))))))
 (let (($x3539 (forall ((w (_ BitVec 256)) )(let ((?x9286 (storage_s x_0 x_1 x_2 x_MLOAD_0 5 w)))
 (let ((?x3143 (storage_s x_0 x_1 x_2 x_MLOAD_0 6 w)))
 (= ?x3143 ?x9286))))
 ))
 (let (($x11559 (forall ((n (_ BitVec 6)) )(let ((?x3526 (stack_s x_0 x_1 x_2 x_MLOAD_0 5 n)))
 (let ((?x5593 (stack_s x_0 x_1 x_2 x_MLOAD_0 6 n)))
 (or (= ?x5593 ?x3526) (bvsle (bvadd (_ bv61 6) (sc_s 5)) n)))))
 ))
 (let (($x1530 (= (used_gas_s x_0 x_1 x_2 x_MLOAD_0 6) (+ 3 (used_gas_s x_0 x_1 x_2 x_MLOAD_0 5)))))
 (let (($x8259 (= (stack_s x_0 x_1 x_2 x_MLOAD_0 6 (bvadd (_ bv62 6) ?x926)) (stack_s x_0 x_1 x_2 x_MLOAD_0 5 (bvadd (_ bv62 6) (sc_s 5))))))
 (let ((?x4319 (sc_s 5)))
 (let ((?x8736 (bvadd (_ bv63 6) ?x4319)))
 (let ((?x9842 (stack_s x_0 x_1 x_2 x_MLOAD_0 5 ?x8736)))
 (let (($x3773 (= (stack_s x_0 x_1 x_2 x_MLOAD_0 6 (bvadd (_ bv63 6) ?x926)) (stack_s x_0 x_1 x_2 x_MLOAD_0 5 (bvadd (_ bv61 6) ?x4319)))))
 (let (($x11317 (exc_halt_s 5)))
 (let (($x6722 (= $x11317 (or (exc_halt_s 4) (not (bvsle (_ bv0 6) (bvadd (_ bv63 6) (sc_s 4))))))))
 (let (($x11796 (forall ((w (_ BitVec 256)) )(let ((?x601 (storage_s x_0 x_1 x_2 x_MLOAD_0 4 w)))
 (let ((?x9286 (storage_s x_0 x_1 x_2 x_MLOAD_0 5 w)))
 (= ?x9286 ?x601))))
 ))
 (let (($x10451 (forall ((n (_ BitVec 6)) )(let ((?x4305 (sc_s 4)))
 (let ((?x4799 (bvadd (_ bv63 6) ?x4305)))
 (let (($x5135 (bvsle ?x4799 n)))
 (let ((?x3752 (stack_s x_0 x_1 x_2 x_MLOAD_0 4 n)))
 (let ((?x3526 (stack_s x_0 x_1 x_2 x_MLOAD_0 5 n)))
 (or (= ?x3526 ?x3752) $x5135)))))))
 ))
 (let ((?x4305 (sc_s 4)))
 (let (($x11146 (= ?x4319 ?x4305)))
 (let ((?x10013 (used_gas_s x_0 x_1 x_2 x_MLOAD_0 5)))
 (let ((?x4799 (bvadd (_ bv63 6) ?x4305)))
 (let ((?x2818 (stack_s x_0 x_1 x_2 x_MLOAD_0 4 ?x4799)))
 (let (($x7172 (exc_halt_s 4)))
 (let (($x3661 (= $x7172 (or (exc_halt_s 3) (not (bvsle (_ bv0 6) (bvadd (_ bv62 6) (sc_s 3))))))))
 (let (($x1320 (forall ((w (_ BitVec 256)) )(let ((?x10048 (storage_s x_0 x_1 x_2 x_MLOAD_0 3 w)))
 (let ((?x601 (storage_s x_0 x_1 x_2 x_MLOAD_0 4 w)))
 (= ?x601 ?x10048))))
 ))
 (let (($x10516 (forall ((n (_ BitVec 6)) )(let ((?x3390 (stack_s x_0 x_1 x_2 x_MLOAD_0 3 n)))
 (let ((?x3752 (stack_s x_0 x_1 x_2 x_MLOAD_0 4 n)))
 (or (bvsle (bvadd (_ bv62 6) (sc_s 3)) n) (= ?x3752 ?x3390)))))
 ))
 (let ((?x275 (sc_s 3)))
 (let ((?x2261 (bvadd (_ bv63 6) ?x275)))
 (let (($x10559 (= ?x4305 ?x2261)))
 (let ((?x179 (used_gas_s x_0 x_1 x_2 x_MLOAD_0 4)))
 (let ((?x5601 (bvadd (stack_s x_0 x_1 x_2 x_MLOAD_0 3 ?x2261) (stack_s x_0 x_1 x_2 x_MLOAD_0 3 (bvadd (_ bv62 6) ?x275)))))
 (let (($x247 (exc_halt_s 2)))
 (let (($x105 (or $x247 (not (= ((_ extract 6 6) (bvadd (_ bv1 7) (concat (_ bv0 1) (sc_s 2)))) (_ bv0 1))))))
 (let (($x292 (exc_halt_s 3)))
 (let (($x4286 (= $x292 $x105)))
 (let (($x2865 (forall ((w (_ BitVec 256)) )(let ((?x7488 (storage_s x_0 x_1 x_2 x_MLOAD_0 2 w)))
 (let ((?x10048 (storage_s x_0 x_1 x_2 x_MLOAD_0 3 w)))
 (= ?x10048 ?x7488))))
 ))
 (let (($x10862 (forall ((n (_ BitVec 6)) )(let ((?x8410 (stack_s x_0 x_1 x_2 x_MLOAD_0 2 n)))
 (let ((?x3390 (stack_s x_0 x_1 x_2 x_MLOAD_0 3 n)))
 (let ((?x218 (sc_s 2)))
 (let (($x1048 (bvsle ?x218 n)))
 (or $x1048 (= ?x3390 ?x8410)))))))
 ))
 (let (($x2806 (= ?x275 (bvadd (_ bv1 6) (sc_s 2)))))
 (let ((?x6732 (used_gas_s x_0 x_1 x_2 x_MLOAD_0 3)))
 (let (($x9102 (not (= ((_ extract 6 6) (bvadd (_ bv1 7) (concat (_ bv0 1) (sc_s 1)))) (_ bv0 1)))))
 (let (($x189 (exc_halt_s 1)))
 (let (($x6078 (forall ((w (_ BitVec 256)) )(let ((?x11262 (storage_s x_0 x_1 x_2 x_MLOAD_0 1 w)))
 (let ((?x7488 (storage_s x_0 x_1 x_2 x_MLOAD_0 2 w)))
 (= ?x7488 ?x11262))))
 ))
 (let (($x4664 (forall ((n (_ BitVec 6)) )(let ((?x10513 (stack_s x_0 x_1 x_2 x_MLOAD_0 1 n)))
 (let ((?x8410 (stack_s x_0 x_1 x_2 x_MLOAD_0 2 n)))
 (or (bvsle (bvadd (_ bv63 6) (sc_s 1)) n) (= ?x8410 ?x10513)))))
 ))
 (let ((?x218 (sc_s 2)))
 (let (($x4816 (= ?x218 (bvadd (_ bv1 6) (sc_s 1)))))
 (let ((?x4524 (used_gas_s x_0 x_1 x_2 x_MLOAD_0 2)))
 (let ((?x154 (sc_s 1)))
 (let ((?x11015 (bvadd (_ bv63 6) ?x154)))
 (let ((?x11160 (stack_s x_0 x_1 x_2 x_MLOAD_0 1 ?x11015)))
 (let (($x510 (= $x189 (or $x57 (not (bvsle (_ bv0 6) (bvadd (_ bv63 6) ?x72)))))))
 (let (($x6291 (forall ((w (_ BitVec 256)) )(let ((?x4115 (storage_s x_0 x_1 x_2 x_MLOAD_0 0 w)))
 (let ((?x11262 (storage_s x_0 x_1 x_2 x_MLOAD_0 1 w)))
 (= ?x11262 ?x4115))))
 ))
 (let (($x3130 (forall ((n (_ BitVec 6)) )(let ((?x2427 (stack_s x_0 x_1 x_2 x_MLOAD_0 0 n)))
 (let ((?x10513 (stack_s x_0 x_1 x_2 x_MLOAD_0 1 n)))
 (let ((?x72 (sc_s 0)))
 (let ((?x379 (bvadd (_ bv63 6) ?x72)))
 (let (($x8660 (bvsle ?x379 n)))
 (or $x8660 (= ?x10513 ?x2427))))))))
 ))
 (let ((?x379 (bvadd (_ bv63 6) ?x72)))
 (let (($x3923 (= ?x154 ?x379)))
 (let (($x9599 (forall ((w0 (_ BitVec 256)) )(let (($x11361 (= (stack_s x_0 x_1 x_2 x_MLOAD_0 4 (bvadd (_ bv63 6) (sc_s 4))) w0)))
 (let ((?x11130 (f_MLOAD x_0 x_1 x_2 x_MLOAD_0 w0)))
 (= ?x11130 (ite $x11361 x_MLOAD_0 (_ bv0 256))))))
 ))
 (let (($x5618 (forall ((w (_ BitVec 256)) )(let ((?x4115 (storage_s x_0 x_1 x_2 x_MLOAD_0 0 w)))
 (= ?x4115 (_ bv0 256))))
 ))
 (let (($x9019 (= ?x4495 0)))
 (let (($x2084 (not $x57)))
 (let (($x8277 (= (stack_s x_0 x_1 x_2 x_MLOAD_0 0 (_ bv2 6)) x_2)))
 (let (($x3356 (= (stack_s x_0 x_1 x_2 x_MLOAD_0 0 (_ bv1 6)) x_1)))
 (let (($x2338 (= (stack_s x_0 x_1 x_2 x_MLOAD_0 0 (_ bv0 6)) x_0)))
 (let (($x7781 (= ?x72 (_ bv3 6))))
 (and $x7781 $x2338 $x3356 $x8277 $x2084 $x9019 $x5618 $x9599 (= (used_gas_s x_0 x_1 x_2 x_MLOAD_0 1) (+ 2 ?x4495)) $x3923 $x3130 $x6291 $x510 (= (stack_s x_0 x_1 x_2 x_MLOAD_0 2 (bvadd (_ bv63 6) ?x218)) ?x11160) (= (stack_s x_0 x_1 x_2 x_MLOAD_0 2 ?x11015) ?x11160) (= ?x4524 (+ 3 (used_gas_s x_0 x_1 x_2 x_MLOAD_0 1))) $x4816 $x4664 $x6078 (= $x247 (or $x189 (not (bvsle (_ bv0 6) ?x11015)) $x9102)) (= (stack_s x_0 x_1 x_2 x_MLOAD_0 3 ?x218) (_ bv0 256)) (= ?x6732 (+ 3 ?x4524)) $x2806 $x10862 $x2865 $x4286 (= ?x2818 ?x5601) (= ?x179 (+ 3 ?x6732)) $x10559 $x10516 $x1320 $x3661 (= ?x9842 (f_MLOAD x_0 x_1 x_2 x_MLOAD_0 ?x2818)) (= ?x10013 (+ 3 ?x179)) $x11146 $x10451 $x11796 $x6722 $x3773 (= (stack_s x_0 x_1 x_2 x_MLOAD_0 6 (bvadd (_ bv61 6) ?x926)) ?x9842) $x8259 $x1530 (= ?x926 ?x4319) $x11559 $x3539 $x9853 (= ?x3608 ?x11131) (= (stack_t x_0 x_1 x_2 x_MLOAD_0 1 ?x5779) ?x11131) $x9764 (= (used_gas_t x_0 x_1 x_2 x_MLOAD_0 1) (+ 3 ?x6404)) (= ?x7154 (bvadd (_ bv1 6) ?x63)) $x7029 $x5124 (= $x8377 $x3533) (= ?x10126 (f_MLOAD x_0 x_1 x_2 x_MLOAD_0 ?x3608)) (= ?x3278 (+ 3 (used_gas_t x_0 x_1 x_2 x_MLOAD_0 1))) (= ?x6158 ?x7154) $x5689 $x11265 $x5557 (= ?x11925 (stack_t x_0 x_1 x_2 x_MLOAD_0 2 (bvadd (_ bv60 6) ?x6158))) (= (stack_t x_0 x_1 x_2 x_MLOAD_0 3 (bvadd (_ bv60 6) ?x11304)) ?x10126) $x8676 (= ?x8677 (stack_t x_0 x_1 x_2 x_MLOAD_0 2 (bvadd (_ bv62 6) ?x6158))) (= ?x6487 (+ 3 ?x3278)) $x10184 $x6823 $x4258 $x11973 $x9489 $x3310 (= ?x8690 (+ 3 ?x6487)) (= (sc_t 4) ?x11304) $x11709 $x825 $x9351 $x5978 (= ?x8961 (bvadd (_ bv63 6) (sc_t 4))) $x8323 $x6284 $x1327 $x73 $x6928 $x58 $x5657 $x2902 (not (and $x5889 $x8957 $x11108 $x3510))))))))))))))))))))))))))))))))))))))))))))))))))))))))))))))))))))))))))))))))))))))))))))))))))))))))))))))))))))))))))
 )
(check-sat)
(get-proof)
